602 10
2 2 2 2 2 2 2 2 2 2
0  0 0 0 0 0 0 0 0 0 0  60 2 12 22 32 42 52 62 72 82 92 102 112 122 132 142 152 162 172 182 192 202 212 222 232 242 252 262 272 282 292 302 312 322 332 342 352 362 372 382 392 402 412 422 432 442 452 462 472 482 492 502 512 522 532 542 552 562 572 582 592
21  0 0 0 0 1 0 0 0 0 0  1 3
26  0 0 0 0 0 0 0 1 0 0  1 4
16  0 0 0 0 0 0 0 0 0 1  1 5
34  0 0 1 0 0 0 0 0 0 0  1 6
55  0 0 0 1 0 0 0 0 0 0  1 7
52  0 0 0 0 0 0 0 0 1 0  1 8
95  0 0 0 0 0 1 0 0 0 0  1 9
71  0 0 0 0 0 0 1 0 0 0  1 10
21  0 1 0 0 0 0 0 0 0 0  1 11
53  1 0 0 0 0 0 0 0 0 0  1 602
77  0 0 0 0 0 0 0 0 1 0  1 13
98  0 0 0 0 0 1 0 0 0 0  1 14
42  0 1 0 0 0 0 0 0 0 0  1 15
66  0 0 0 0 0 0 0 1 0 0  1 16
31  0 0 1 0 0 0 0 0 0 0  1 17
39  0 0 0 1 0 0 0 0 0 0  1 18
77  0 0 0 0 0 0 1 0 0 0  1 19
79  0 0 0 0 0 0 0 0 0 1  1 20
55  0 0 0 0 1 0 0 0 0 0  1 21
12  1 0 0 0 0 0 0 0 0 0  1 602
64  0 0 1 0 0 0 0 0 0 0  1 23
92  0 0 0 0 1 0 0 0 0 0  1 24
34  0 0 0 1 0 0 0 0 0 0  1 25
19  0 1 0 0 0 0 0 0 0 0  1 26
62  0 0 0 0 0 0 0 0 1 0  1 27
54  0 0 0 0 0 0 1 0 0 0  1 28
43  0 0 0 0 0 0 0 1 0 0  1 29
83  1 0 0 0 0 0 0 0 0 0  1 30
79  0 0 0 0 0 0 0 0 0 1  1 31
37  0 0 0 0 0 1 0 0 0 0  1 602
93  1 0 0 0 0 0 0 0 0 0  1 33
24  0 0 0 0 0 0 0 0 1 0  1 34
69  0 0 0 1 0 0 0 0 0 0  1 35
38  0 0 0 0 0 0 0 1 0 0  1 36
77  0 0 0 0 0 1 0 0 0 0  1 37
87  0 0 1 0 0 0 0 0 0 0  1 38
60  0 0 0 0 1 0 0 0 0 0  1 39
41  0 0 0 0 0 0 1 0 0 0  1 40
87  0 1 0 0 0 0 0 0 0 0  1 41
83  0 0 0 0 0 0 0 0 0 1  1 602
77  0 0 0 0 0 0 0 0 0 1  1 43
44  1 0 0 0 0 0 0 0 0 0  1 44
96  0 0 0 0 1 0 0 0 0 0  1 45
79  0 0 0 0 0 0 0 0 1 0  1 46
75  0 0 0 0 0 0 1 0 0 0  1 47
98  0 0 1 0 0 0 0 0 0 0  1 48
25  0 0 0 0 0 1 0 0 0 0  1 49
17  0 0 0 1 0 0 0 0 0 0  1 50
43  0 0 0 0 0 0 0 1 0 0  1 51
49  0 1 0 0 0 0 0 0 0 0  1 602
76  0 0 0 1 0 0 0 0 0 0  1 53
35  0 0 1 0 0 0 0 0 0 0  1 54
28  0 0 0 0 0 1 0 0 0 0  1 55
95  1 0 0 0 0 0 0 0 0 0  1 56
95  0 0 0 0 0 0 0 1 0 0  1 57
61  0 0 0 0 1 0 0 0 0 0  1 58
35  0 0 0 0 0 0 0 0 1 0  1 59
7  0 1 0 0 0 0 0 0 0 0  1 60
9  0 0 0 0 0 0 1 0 0 0  1 61
10  0 0 0 0 0 0 0 0 0 1  1 602
91  0 1 0 0 0 0 0 0 0 0  1 63
27  0 0 0 0 0 0 0 1 0 0  1 64
50  0 0 0 0 0 0 0 0 1 0  1 65
16  0 0 0 1 0 0 0 0 0 0  1 66
28  0 0 0 0 1 0 0 0 0 0  1 67
59  0 0 0 0 0 1 0 0 0 0  1 68
52  0 0 0 0 0 0 1 0 0 0  1 69
46  1 0 0 0 0 0 0 0 0 0  1 70
59  0 0 1 0 0 0 0 0 0 0  1 71
43  0 0 0 0 0 0 0 0 0 1  1 602
45  0 1 0 0 0 0 0 0 0 0  1 73
71  0 0 0 0 0 0 0 1 0 0  1 74
39  0 0 1 0 0 0 0 0 0 0  1 75
87  1 0 0 0 0 0 0 0 0 0  1 76
14  0 0 0 0 0 0 0 0 1 0  1 77
54  0 0 0 0 0 0 1 0 0 0  1 78
41  0 0 0 1 0 0 0 0 0 0  1 79
43  0 0 0 0 0 0 0 0 0 1  1 80
9  0 0 0 0 0 1 0 0 0 0  1 81
20  0 0 0 0 1 0 0 0 0 0  1 602
37  0 0 1 0 0 0 0 0 0 0  1 83
26  0 0 0 1 0 0 0 0 0 0  1 84
33  0 0 0 0 1 0 0 0 0 0  1 85
42  0 0 0 0 0 0 0 0 0 1  1 86
78  1 0 0 0 0 0 0 0 0 0  1 87
89  0 0 0 0 0 0 1 0 0 0  1 88
8  0 0 0 0 0 0 0 1 0 0  1 89
66  0 0 0 0 0 0 0 0 1 0  1 90
28  0 1 0 0 0 0 0 0 0 0  1 91
33  0 0 0 0 0 1 0 0 0 0  1 602
74  0 1 0 0 0 0 0 0 0 0  1 93
69  1 0 0 0 0 0 0 0 0 0  1 94
84  0 0 0 0 0 1 0 0 0 0  1 95
27  0 0 0 1 0 0 0 0 0 0  1 96
81  0 0 0 0 0 0 0 0 0 1  1 97
45  0 0 0 0 0 0 0 1 0 0  1 98
69  0 0 0 0 0 0 0 0 1 0  1 99
94  0 0 1 0 0 0 0 0 0 0  1 100
78  0 0 0 0 0 0 1 0 0 0  1 101
96  0 0 0 0 1 0 0 0 0 0  1 602
76  0 0 0 0 0 1 0 0 0 0  1 103
32  0 0 0 0 0 0 0 1 0 0  1 104
18  0 0 0 0 0 0 1 0 0 0  1 105
20  1 0 0 0 0 0 0 0 0 0  1 106
87  0 0 0 1 0 0 0 0 0 0  1 107
17  0 0 1 0 0 0 0 0 0 0  1 108
25  0 0 0 0 0 0 0 0 0 1  1 109
24  0 0 0 0 1 0 0 0 0 0  1 110
31  0 1 0 0 0 0 0 0 0 0  1 111
81  0 0 0 0 0 0 0 0 1 0  1 602
97  0 0 0 0 0 0 0 0 0 1  1 113
90  0 0 0 0 0 0 0 0 1 0  1 114
28  0 0 0 0 0 1 0 0 0 0  1 115
86  0 0 0 0 0 0 0 1 0 0  1 116
58  1 0 0 0 0 0 0 0 0 0  1 117
72  0 1 0 0 0 0 0 0 0 0  1 118
23  0 0 1 0 0 0 0 0 0 0  1 119
76  0 0 0 0 0 0 1 0 0 0  1 120
99  0 0 0 1 0 0 0 0 0 0  1 121
45  0 0 0 0 1 0 0 0 0 0  1 602
48  0 0 0 0 0 0 0 0 0 1  1 123
27  0 0 0 0 0 1 0 0 0 0  1 124
67  0 0 0 0 0 0 1 0 0 0  1 125
62  0 0 0 0 0 0 0 1 0 0  1 126
98  0 0 0 0 1 0 0 0 0 0  1 127
42  1 0 0 0 0 0 0 0 0 0  1 128
46  0 1 0 0 0 0 0 0 0 0  1 129
27  0 0 0 0 0 0 0 0 1 0  1 130
48  0 0 0 1 0 0 0 0 0 0  1 131
17  0 0 1 0 0 0 0 0 0 0  1 602
80  0 0 0 0 0 0 0 0 0 1  1 133
19  0 0 0 1 0 0 0 0 0 0  1 134
28  0 0 0 0 0 1 0 0 0 0  1 135
12  0 1 0 0 0 0 0 0 0 0  1 136
94  0 0 0 0 1 0 0 0 0 0  1 137
63  0 0 0 0 0 0 1 0 0 0  1 138
98  0 0 0 0 0 0 0 1 0 0  1 139
50  0 0 0 0 0 0 0 0 1 0  1 140
80  1 0 0 0 0 0 0 0 0 0  1 141
50  0 0 1 0 0 0 0 0 0 0  1 602
50  0 0 1 0 0 0 0 0 0 0  1 143
41  0 1 0 0 0 0 0 0 0 0  1 144
61  0 0 0 0 1 0 0 0 0 0  1 145
79  0 0 0 0 0 0 0 0 1 0  1 146
14  0 0 0 0 0 1 0 0 0 0  1 147
72  0 0 0 0 0 0 0 0 0 1  1 148
18  0 0 0 0 0 0 0 1 0 0  1 149
55  0 0 0 1 0 0 0 0 0 0  1 150
37  0 0 0 0 0 0 1 0 0 0  1 151
75  1 0 0 0 0 0 0 0 0 0  1 602
22  0 0 0 0 0 0 0 0 0 1  1 153
57  0 0 0 0 0 1 0 0 0 0  1 154
75  0 0 0 0 1 0 0 0 0 0  1 155
14  0 0 1 0 0 0 0 0 0 0  1 156
65  0 0 0 0 0 0 0 1 0 0  1 157
96  0 0 0 1 0 0 0 0 0 0  1 158
71  0 1 0 0 0 0 0 0 0 0  1 159
47  1 0 0 0 0 0 0 0 0 0  1 160
79  0 0 0 0 0 0 0 0 1 0  1 161
60  0 0 0 0 0 0 1 0 0 0  1 602
32  0 0 0 1 0 0 0 0 0 0  1 163
69  0 0 1 0 0 0 0 0 0 0  1 164
44  0 0 0 0 1 0 0 0 0 0  1 165
31  0 1 0 0 0 0 0 0 0 0  1 166
51  0 0 0 0 0 0 0 0 0 1  1 167
33  1 0 0 0 0 0 0 0 0 0  1 168
34  0 0 0 0 0 0 1 0 0 0  1 169
58  0 0 0 0 0 1 0 0 0 0  1 170
47  0 0 0 0 0 0 0 1 0 0  1 171
58  0 0 0 0 0 0 0 0 1 0  1 602
66  0 0 0 0 0 0 0 0 1 0  1 173
40  0 0 0 0 0 0 0 1 0 0  1 174
17  0 0 1 0 0 0 0 0 0 0  1 175
62  1 0 0 0 0 0 0 0 0 0  1 176
38  0 0 0 0 0 0 0 0 0 1  1 177
8  0 0 0 0 0 1 0 0 0 0  1 178
15  0 0 0 0 0 0 1 0 0 0  1 179
29  0 0 0 1 0 0 0 0 0 0  1 180
44  0 1 0 0 0 0 0 0 0 0  1 181
97  0 0 0 0 1 0 0 0 0 0  1 602
50  0 0 0 1 0 0 0 0 0 0  1 183
58  0 0 1 0 0 0 0 0 0 0  1 184
21  0 0 0 0 0 0 1 0 0 0  1 185
63  0 0 0 0 1 0 0 0 0 0  1 186
57  0 0 0 0 0 0 0 1 0 0  1 187
32  0 0 0 0 0 0 0 0 1 0  1 188
20  0 0 0 0 0 1 0 0 0 0  1 189
87  0 0 0 0 0 0 0 0 0 1  1 190
57  1 0 0 0 0 0 0 0 0 0  1 191
39  0 1 0 0 0 0 0 0 0 0  1 602
20  0 0 0 0 1 0 0 0 0 0  1 193
67  0 0 0 0 0 0 1 0 0 0  1 194
85  0 1 0 0 0 0 0 0 0 0  1 195
90  0 0 1 0 0 0 0 0 0 0  1 196
70  0 0 0 0 0 0 0 1 0 0  1 197
84  1 0 0 0 0 0 0 0 0 0  1 198
30  0 0 0 0 0 0 0 0 1 0  1 199
56  0 0 0 0 0 1 0 0 0 0  1 200
61  0 0 0 1 0 0 0 0 0 0  1 201
15  0 0 0 0 0 0 0 0 0 1  1 602
29  0 0 0 0 0 0 1 0 0 0  1 203
82  1 0 0 0 0 0 0 0 0 0  1 204
18  0 0 0 0 1 0 0 0 0 0  1 205
38  0 0 0 1 0 0 0 0 0 0  1 206
21  0 0 0 0 0 0 0 1 0 0  1 207
50  0 0 0 0 0 0 0 0 1 0  1 208
23  0 1 0 0 0 0 0 0 0 0  1 209
84  0 0 0 0 0 1 0 0 0 0  1 210
45  0 0 1 0 0 0 0 0 0 0  1 211
41  0 0 0 0 0 0 0 0 0 1  1 602
54  0 0 0 1 0 0 0 0 0 0  1 213
37  0 0 0 0 0 0 0 0 0 1  1 214
62  0 0 0 0 0 0 1 0 0 0  1 215
16  0 0 0 0 0 1 0 0 0 0  1 216
52  1 0 0 0 0 0 0 0 0 0  1 217
57  0 0 0 0 0 0 0 0 1 0  1 218
54  0 0 0 0 1 0 0 0 0 0  1 219
38  0 0 1 0 0 0 0 0 0 0  1 220
74  0 0 0 0 0 0 0 1 0 0  1 221
52  0 1 0 0 0 0 0 0 0 0  1 602
79  0 0 0 0 1 0 0 0 0 0  1 223
61  0 1 0 0 0 0 0 0 0 0  1 224
11  0 0 0 0 0 0 0 0 1 0  1 225
81  1 0 0 0 0 0 0 0 0 0  1 226
89  0 0 0 0 0 0 0 1 0 0  1 227
89  0 0 0 0 0 0 1 0 0 0  1 228
57  0 0 0 0 0 1 0 0 0 0  1 229
68  0 0 0 1 0 0 0 0 0 0  1 230
81  0 0 0 0 0 0 0 0 0 1  1 231
30  0 0 1 0 0 0 0 0 0 0  1 602
24  0 0 0 0 0 0 0 0 0 1  1 233
66  0 1 0 0 0 0 0 0 0 0  1 234
32  0 0 0 0 1 0 0 0 0 0  1 235
33  0 0 0 1 0 0 0 0 0 0  1 236
8  0 0 0 0 0 0 0 0 1 0  1 237
20  0 0 1 0 0 0 0 0 0 0  1 238
84  0 0 0 0 0 0 1 0 0 0  1 239
91  1 0 0 0 0 0 0 0 0 0  1 240
55  0 0 0 0 0 0 0 1 0 0  1 241
20  0 0 0 0 0 1 0 0 0 0  1 602
54  0 0 0 1 0 0 0 0 0 0  1 243
64  0 0 1 0 0 0 0 0 0 0  1 244
83  0 0 0 0 0 0 1 0 0 0  1 245
40  0 0 0 0 0 0 0 0 0 1  1 246
8  0 0 0 0 0 0 0 1 0 0  1 247
7  1 0 0 0 0 0 0 0 0 0  1 248
19  0 0 0 0 1 0 0 0 0 0  1 249
56  0 0 0 0 0 1 0 0 0 0  1 250
39  0 1 0 0 0 0 0 0 0 0  1 251
7  0 0 0 0 0 0 0 0 1 0  1 602
6  0 1 0 0 0 0 0 0 0 0  1 253
74  0 0 0 0 1 0 0 0 0 0  1 254
63  1 0 0 0 0 0 0 0 0 0  1 255
64  0 0 1 0 0 0 0 0 0 0  1 256
15  0 0 0 0 0 0 0 0 0 1  1 257
42  0 0 0 0 0 0 1 0 0 0  1 258
98  0 0 0 0 0 0 0 1 0 0  1 259
61  0 0 0 0 0 0 0 0 1 0  1 260
40  0 0 0 0 0 1 0 0 0 0  1 261
91  0 0 0 1 0 0 0 0 0 0  1 602
80  0 1 0 0 0 0 0 0 0 0  1 263
75  0 0 0 1 0 0 0 0 0 0  1 264
26  1 0 0 0 0 0 0 0 0 0  1 265
87  0 0 1 0 0 0 0 0 0 0  1 266
22  0 0 0 0 0 0 0 0 0 1  1 267
39  0 0 0 0 0 0 0 1 0 0  1 268
24  0 0 0 0 0 0 0 0 1 0  1 269
75  0 0 0 0 1 0 0 0 0 0  1 270
44  0 0 0 0 0 0 1 0 0 0  1 271
6  0 0 0 0 0 1 0 0 0 0  1 602
8  0 0 0 0 0 1 0 0 0 0  1 273
79  0 0 0 1 0 0 0 0 0 0  1 274
61  0 0 0 0 0 0 1 0 0 0  1 275
15  0 1 0 0 0 0 0 0 0 0  1 276
12  1 0 0 0 0 0 0 0 0 0  1 277
43  0 0 0 0 0 0 0 1 0 0  1 278
26  0 0 0 0 0 0 0 0 1 0  1 279
22  0 0 0 0 0 0 0 0 0 1  1 280
20  0 0 1 0 0 0 0 0 0 0  1 281
80  0 0 0 0 1 0 0 0 0 0  1 602
36  0 1 0 0 0 0 0 0 0 0  1 283
63  1 0 0 0 0 0 0 0 0 0  1 284
10  0 0 0 0 0 0 0 1 0 0  1 285
22  0 0 0 0 1 0 0 0 0 0  1 286
96  0 0 0 1 0 0 0 0 0 0  1 287
40  0 0 0 0 0 1 0 0 0 0  1 288
5  0 0 0 0 0 0 0 0 0 1  1 289
18  0 0 0 0 0 0 0 0 1 0  1 290
33  0 0 0 0 0 0 1 0 0 0  1 291
62  0 0 1 0 0 0 0 0 0 0  1 602
8  0 0 0 0 1 0 0 0 0 0  1 293
15  0 0 0 0 0 0 0 0 1 0  1 294
64  0 0 1 0 0 0 0 0 0 0  1 295
95  0 0 0 1 0 0 0 0 0 0  1 296
96  0 1 0 0 0 0 0 0 0 0  1 297
38  0 0 0 0 0 0 1 0 0 0  1 298
18  0 0 0 0 0 0 0 1 0 0  1 299
23  0 0 0 0 0 0 0 0 0 1  1 300
64  0 0 0 0 0 1 0 0 0 0  1 301
89  1 0 0 0 0 0 0 0 0 0  1 602
21  0 0 0 0 1 0 0 0 0 0  1 303
26  0 0 0 0 0 0 0 1 0 0  1 304
16  0 0 0 0 0 0 0 0 0 1  1 305
34  0 0 1 0 0 0 0 0 0 0  1 306
55  0 0 0 1 0 0 0 0 0 0  1 307
52  0 0 0 0 0 0 0 0 1 0  1 308
95  0 0 0 0 0 1 0 0 0 0  1 309
71  0 0 0 0 0 0 1 0 0 0  1 310
21  0 1 0 0 0 0 0 0 0 0  1 311
53  1 0 0 0 0 0 0 0 0 0  1 602
77  0 0 0 0 0 0 0 0 1 0  1 313
98  0 0 0 0 0 1 0 0 0 0  1 314
42  0 1 0 0 0 0 0 0 0 0  1 315
66  0 0 0 0 0 0 0 1 0 0  1 316
31  0 0 1 0 0 0 0 0 0 0  1 317
39  0 0 0 1 0 0 0 0 0 0  1 318
77  0 0 0 0 0 0 1 0 0 0  1 319
79  0 0 0 0 0 0 0 0 0 1  1 320
55  0 0 0 0 1 0 0 0 0 0  1 321
12  1 0 0 0 0 0 0 0 0 0  1 602
64  0 0 1 0 0 0 0 0 0 0  1 323
92  0 0 0 0 1 0 0 0 0 0  1 324
34  0 0 0 1 0 0 0 0 0 0  1 325
19  0 1 0 0 0 0 0 0 0 0  1 326
62  0 0 0 0 0 0 0 0 1 0  1 327
54  0 0 0 0 0 0 1 0 0 0  1 328
43  0 0 0 0 0 0 0 1 0 0  1 329
83  1 0 0 0 0 0 0 0 0 0  1 330
79  0 0 0 0 0 0 0 0 0 1  1 331
37  0 0 0 0 0 1 0 0 0 0  1 602
93  1 0 0 0 0 0 0 0 0 0  1 333
24  0 0 0 0 0 0 0 0 1 0  1 334
69  0 0 0 1 0 0 0 0 0 0  1 335
38  0 0 0 0 0 0 0 1 0 0  1 336
77  0 0 0 0 0 1 0 0 0 0  1 337
87  0 0 1 0 0 0 0 0 0 0  1 338
60  0 0 0 0 1 0 0 0 0 0  1 339
41  0 0 0 0 0 0 1 0 0 0  1 340
87  0 1 0 0 0 0 0 0 0 0  1 341
83  0 0 0 0 0 0 0 0 0 1  1 602
77  0 0 0 0 0 0 0 0 0 1  1 343
44  1 0 0 0 0 0 0 0 0 0  1 344
96  0 0 0 0 1 0 0 0 0 0  1 345
79  0 0 0 0 0 0 0 0 1 0  1 346
75  0 0 0 0 0 0 1 0 0 0  1 347
98  0 0 1 0 0 0 0 0 0 0  1 348
25  0 0 0 0 0 1 0 0 0 0  1 349
17  0 0 0 1 0 0 0 0 0 0  1 350
43  0 0 0 0 0 0 0 1 0 0  1 351
49  0 1 0 0 0 0 0 0 0 0  1 602
76  0 0 0 1 0 0 0 0 0 0  1 353
35  0 0 1 0 0 0 0 0 0 0  1 354
28  0 0 0 0 0 1 0 0 0 0  1 355
95  1 0 0 0 0 0 0 0 0 0  1 356
95  0 0 0 0 0 0 0 1 0 0  1 357
61  0 0 0 0 1 0 0 0 0 0  1 358
35  0 0 0 0 0 0 0 0 1 0  1 359
7  0 1 0 0 0 0 0 0 0 0  1 360
9  0 0 0 0 0 0 1 0 0 0  1 361
10  0 0 0 0 0 0 0 0 0 1  1 602
91  0 1 0 0 0 0 0 0 0 0  1 363
27  0 0 0 0 0 0 0 1 0 0  1 364
50  0 0 0 0 0 0 0 0 1 0  1 365
16  0 0 0 1 0 0 0 0 0 0  1 366
28  0 0 0 0 1 0 0 0 0 0  1 367
59  0 0 0 0 0 1 0 0 0 0  1 368
52  0 0 0 0 0 0 1 0 0 0  1 369
46  1 0 0 0 0 0 0 0 0 0  1 370
59  0 0 1 0 0 0 0 0 0 0  1 371
43  0 0 0 0 0 0 0 0 0 1  1 602
45  0 1 0 0 0 0 0 0 0 0  1 373
71  0 0 0 0 0 0 0 1 0 0  1 374
39  0 0 1 0 0 0 0 0 0 0  1 375
87  1 0 0 0 0 0 0 0 0 0  1 376
14  0 0 0 0 0 0 0 0 1 0  1 377
54  0 0 0 0 0 0 1 0 0 0  1 378
41  0 0 0 1 0 0 0 0 0 0  1 379
43  0 0 0 0 0 0 0 0 0 1  1 380
9  0 0 0 0 0 1 0 0 0 0  1 381
20  0 0 0 0 1 0 0 0 0 0  1 602
37  0 0 1 0 0 0 0 0 0 0  1 383
26  0 0 0 1 0 0 0 0 0 0  1 384
33  0 0 0 0 1 0 0 0 0 0  1 385
42  0 0 0 0 0 0 0 0 0 1  1 386
78  1 0 0 0 0 0 0 0 0 0  1 387
89  0 0 0 0 0 0 1 0 0 0  1 388
8  0 0 0 0 0 0 0 1 0 0  1 389
66  0 0 0 0 0 0 0 0 1 0  1 390
28  0 1 0 0 0 0 0 0 0 0  1 391
33  0 0 0 0 0 1 0 0 0 0  1 602
74  0 1 0 0 0 0 0 0 0 0  1 393
69  1 0 0 0 0 0 0 0 0 0  1 394
84  0 0 0 0 0 1 0 0 0 0  1 395
27  0 0 0 1 0 0 0 0 0 0  1 396
81  0 0 0 0 0 0 0 0 0 1  1 397
45  0 0 0 0 0 0 0 1 0 0  1 398
69  0 0 0 0 0 0 0 0 1 0  1 399
94  0 0 1 0 0 0 0 0 0 0  1 400
78  0 0 0 0 0 0 1 0 0 0  1 401
96  0 0 0 0 1 0 0 0 0 0  1 602
76  0 0 0 0 0 1 0 0 0 0  1 403
32  0 0 0 0 0 0 0 1 0 0  1 404
18  0 0 0 0 0 0 1 0 0 0  1 405
20  1 0 0 0 0 0 0 0 0 0  1 406
87  0 0 0 1 0 0 0 0 0 0  1 407
17  0 0 1 0 0 0 0 0 0 0  1 408
25  0 0 0 0 0 0 0 0 0 1  1 409
24  0 0 0 0 1 0 0 0 0 0  1 410
31  0 1 0 0 0 0 0 0 0 0  1 411
81  0 0 0 0 0 0 0 0 1 0  1 602
97  0 0 0 0 0 0 0 0 0 1  1 413
90  0 0 0 0 0 0 0 0 1 0  1 414
28  0 0 0 0 0 1 0 0 0 0  1 415
86  0 0 0 0 0 0 0 1 0 0  1 416
58  1 0 0 0 0 0 0 0 0 0  1 417
72  0 1 0 0 0 0 0 0 0 0  1 418
23  0 0 1 0 0 0 0 0 0 0  1 419
76  0 0 0 0 0 0 1 0 0 0  1 420
99  0 0 0 1 0 0 0 0 0 0  1 421
45  0 0 0 0 1 0 0 0 0 0  1 602
48  0 0 0 0 0 0 0 0 0 1  1 423
27  0 0 0 0 0 1 0 0 0 0  1 424
67  0 0 0 0 0 0 1 0 0 0  1 425
62  0 0 0 0 0 0 0 1 0 0  1 426
98  0 0 0 0 1 0 0 0 0 0  1 427
42  1 0 0 0 0 0 0 0 0 0  1 428
46  0 1 0 0 0 0 0 0 0 0  1 429
27  0 0 0 0 0 0 0 0 1 0  1 430
48  0 0 0 1 0 0 0 0 0 0  1 431
17  0 0 1 0 0 0 0 0 0 0  1 602
80  0 0 0 0 0 0 0 0 0 1  1 433
19  0 0 0 1 0 0 0 0 0 0  1 434
28  0 0 0 0 0 1 0 0 0 0  1 435
12  0 1 0 0 0 0 0 0 0 0  1 436
94  0 0 0 0 1 0 0 0 0 0  1 437
63  0 0 0 0 0 0 1 0 0 0  1 438
98  0 0 0 0 0 0 0 1 0 0  1 439
50  0 0 0 0 0 0 0 0 1 0  1 440
80  1 0 0 0 0 0 0 0 0 0  1 441
50  0 0 1 0 0 0 0 0 0 0  1 602
50  0 0 1 0 0 0 0 0 0 0  1 443
41  0 1 0 0 0 0 0 0 0 0  1 444
61  0 0 0 0 1 0 0 0 0 0  1 445
79  0 0 0 0 0 0 0 0 1 0  1 446
14  0 0 0 0 0 1 0 0 0 0  1 447
72  0 0 0 0 0 0 0 0 0 1  1 448
18  0 0 0 0 0 0 0 1 0 0  1 449
55  0 0 0 1 0 0 0 0 0 0  1 450
37  0 0 0 0 0 0 1 0 0 0  1 451
75  1 0 0 0 0 0 0 0 0 0  1 602
22  0 0 0 0 0 0 0 0 0 1  1 453
57  0 0 0 0 0 1 0 0 0 0  1 454
75  0 0 0 0 1 0 0 0 0 0  1 455
14  0 0 1 0 0 0 0 0 0 0  1 456
65  0 0 0 0 0 0 0 1 0 0  1 457
96  0 0 0 1 0 0 0 0 0 0  1 458
71  0 1 0 0 0 0 0 0 0 0  1 459
47  1 0 0 0 0 0 0 0 0 0  1 460
79  0 0 0 0 0 0 0 0 1 0  1 461
60  0 0 0 0 0 0 1 0 0 0  1 602
32  0 0 0 1 0 0 0 0 0 0  1 463
69  0 0 1 0 0 0 0 0 0 0  1 464
44  0 0 0 0 1 0 0 0 0 0  1 465
31  0 1 0 0 0 0 0 0 0 0  1 466
51  0 0 0 0 0 0 0 0 0 1  1 467
33  1 0 0 0 0 0 0 0 0 0  1 468
34  0 0 0 0 0 0 1 0 0 0  1 469
58  0 0 0 0 0 1 0 0 0 0  1 470
47  0 0 0 0 0 0 0 1 0 0  1 471
58  0 0 0 0 0 0 0 0 1 0  1 602
66  0 0 0 0 0 0 0 0 1 0  1 473
40  0 0 0 0 0 0 0 1 0 0  1 474
17  0 0 1 0 0 0 0 0 0 0  1 475
62  1 0 0 0 0 0 0 0 0 0  1 476
38  0 0 0 0 0 0 0 0 0 1  1 477
8  0 0 0 0 0 1 0 0 0 0  1 478
15  0 0 0 0 0 0 1 0 0 0  1 479
29  0 0 0 1 0 0 0 0 0 0  1 480
44  0 1 0 0 0 0 0 0 0 0  1 481
97  0 0 0 0 1 0 0 0 0 0  1 602
50  0 0 0 1 0 0 0 0 0 0  1 483
58  0 0 1 0 0 0 0 0 0 0  1 484
21  0 0 0 0 0 0 1 0 0 0  1 485
63  0 0 0 0 1 0 0 0 0 0  1 486
57  0 0 0 0 0 0 0 1 0 0  1 487
32  0 0 0 0 0 0 0 0 1 0  1 488
20  0 0 0 0 0 1 0 0 0 0  1 489
87  0 0 0 0 0 0 0 0 0 1  1 490
57  1 0 0 0 0 0 0 0 0 0  1 491
39  0 1 0 0 0 0 0 0 0 0  1 602
20  0 0 0 0 1 0 0 0 0 0  1 493
67  0 0 0 0 0 0 1 0 0 0  1 494
85  0 1 0 0 0 0 0 0 0 0  1 495
90  0 0 1 0 0 0 0 0 0 0  1 496
70  0 0 0 0 0 0 0 1 0 0  1 497
84  1 0 0 0 0 0 0 0 0 0  1 498
30  0 0 0 0 0 0 0 0 1 0  1 499
56  0 0 0 0 0 1 0 0 0 0  1 500
61  0 0 0 1 0 0 0 0 0 0  1 501
15  0 0 0 0 0 0 0 0 0 1  1 602
29  0 0 0 0 0 0 1 0 0 0  1 503
82  1 0 0 0 0 0 0 0 0 0  1 504
18  0 0 0 0 1 0 0 0 0 0  1 505
38  0 0 0 1 0 0 0 0 0 0  1 506
21  0 0 0 0 0 0 0 1 0 0  1 507
50  0 0 0 0 0 0 0 0 1 0  1 508
23  0 1 0 0 0 0 0 0 0 0  1 509
84  0 0 0 0 0 1 0 0 0 0  1 510
45  0 0 1 0 0 0 0 0 0 0  1 511
41  0 0 0 0 0 0 0 0 0 1  1 602
54  0 0 0 1 0 0 0 0 0 0  1 513
37  0 0 0 0 0 0 0 0 0 1  1 514
62  0 0 0 0 0 0 1 0 0 0  1 515
16  0 0 0 0 0 1 0 0 0 0  1 516
52  1 0 0 0 0 0 0 0 0 0  1 517
57  0 0 0 0 0 0 0 0 1 0  1 518
54  0 0 0 0 1 0 0 0 0 0  1 519
38  0 0 1 0 0 0 0 0 0 0  1 520
74  0 0 0 0 0 0 0 1 0 0  1 521
52  0 1 0 0 0 0 0 0 0 0  1 602
79  0 0 0 0 1 0 0 0 0 0  1 523
61  0 1 0 0 0 0 0 0 0 0  1 524
11  0 0 0 0 0 0 0 0 1 0  1 525
81  1 0 0 0 0 0 0 0 0 0  1 526
89  0 0 0 0 0 0 0 1 0 0  1 527
89  0 0 0 0 0 0 1 0 0 0  1 528
57  0 0 0 0 0 1 0 0 0 0  1 529
68  0 0 0 1 0 0 0 0 0 0  1 530
81  0 0 0 0 0 0 0 0 0 1  1 531
30  0 0 1 0 0 0 0 0 0 0  1 602
24  0 0 0 0 0 0 0 0 0 1  1 533
66  0 1 0 0 0 0 0 0 0 0  1 534
32  0 0 0 0 1 0 0 0 0 0  1 535
33  0 0 0 1 0 0 0 0 0 0  1 536
8  0 0 0 0 0 0 0 0 1 0  1 537
20  0 0 1 0 0 0 0 0 0 0  1 538
84  0 0 0 0 0 0 1 0 0 0  1 539
91  1 0 0 0 0 0 0 0 0 0  1 540
55  0 0 0 0 0 0 0 1 0 0  1 541
20  0 0 0 0 0 1 0 0 0 0  1 602
54  0 0 0 1 0 0 0 0 0 0  1 543
64  0 0 1 0 0 0 0 0 0 0  1 544
83  0 0 0 0 0 0 1 0 0 0  1 545
40  0 0 0 0 0 0 0 0 0 1  1 546
8  0 0 0 0 0 0 0 1 0 0  1 547
7  1 0 0 0 0 0 0 0 0 0  1 548
19  0 0 0 0 1 0 0 0 0 0  1 549
56  0 0 0 0 0 1 0 0 0 0  1 550
39  0 1 0 0 0 0 0 0 0 0  1 551
7  0 0 0 0 0 0 0 0 1 0  1 602
6  0 1 0 0 0 0 0 0 0 0  1 553
74  0 0 0 0 1 0 0 0 0 0  1 554
63  1 0 0 0 0 0 0 0 0 0  1 555
64  0 0 1 0 0 0 0 0 0 0  1 556
15  0 0 0 0 0 0 0 0 0 1  1 557
42  0 0 0 0 0 0 1 0 0 0  1 558
98  0 0 0 0 0 0 0 1 0 0  1 559
61  0 0 0 0 0 0 0 0 1 0  1 560
40  0 0 0 0 0 1 0 0 0 0  1 561
91  0 0 0 1 0 0 0 0 0 0  1 602
80  0 1 0 0 0 0 0 0 0 0  1 563
75  0 0 0 1 0 0 0 0 0 0  1 564
26  1 0 0 0 0 0 0 0 0 0  1 565
87  0 0 1 0 0 0 0 0 0 0  1 566
22  0 0 0 0 0 0 0 0 0 1  1 567
39  0 0 0 0 0 0 0 1 0 0  1 568
24  0 0 0 0 0 0 0 0 1 0  1 569
75  0 0 0 0 1 0 0 0 0 0  1 570
44  0 0 0 0 0 0 1 0 0 0  1 571
6  0 0 0 0 0 1 0 0 0 0  1 602
8  0 0 0 0 0 1 0 0 0 0  1 573
79  0 0 0 1 0 0 0 0 0 0  1 574
61  0 0 0 0 0 0 1 0 0 0  1 575
15  0 1 0 0 0 0 0 0 0 0  1 576
12  1 0 0 0 0 0 0 0 0 0  1 577
43  0 0 0 0 0 0 0 1 0 0  1 578
26  0 0 0 0 0 0 0 0 1 0  1 579
22  0 0 0 0 0 0 0 0 0 1  1 580
20  0 0 1 0 0 0 0 0 0 0  1 581
80  0 0 0 0 1 0 0 0 0 0  1 602
36  0 1 0 0 0 0 0 0 0 0  1 583
63  1 0 0 0 0 0 0 0 0 0  1 584
10  0 0 0 0 0 0 0 1 0 0  1 585
22  0 0 0 0 1 0 0 0 0 0  1 586
96  0 0 0 1 0 0 0 0 0 0  1 587
40  0 0 0 0 0 1 0 0 0 0  1 588
5  0 0 0 0 0 0 0 0 0 1  1 589
18  0 0 0 0 0 0 0 0 1 0  1 590
33  0 0 0 0 0 0 1 0 0 0  1 591
62  0 0 1 0 0 0 0 0 0 0  1 602
8  0 0 0 0 1 0 0 0 0 0  1 593
15  0 0 0 0 0 0 0 0 1 0  1 594
64  0 0 1 0 0 0 0 0 0 0  1 595
95  0 0 0 1 0 0 0 0 0 0  1 596
96  0 1 0 0 0 0 0 0 0 0  1 597
38  0 0 0 0 0 0 1 0 0 0  1 598
18  0 0 0 0 0 0 0 1 0 0  1 599
23  0 0 0 0 0 0 0 0 0 1  1 600
64  0 0 0 0 0 1 0 0 0 0  1 601
89  1 0 0 0 0 0 0 0 0 0  1 602
0  0 0 0 0 0 0 0 0 0 0  0
